435,745
804,575
613,539
171,406
487,547
672,347
751,503
427,660
1066,345
200,651
575,300
654,459
512,529
488,672
773,691
910,91
342,67
709,229
646,454
657,423
390,195
613,273
311,526
178,327
385,360
1095,471
999,88
996,635
225,258
746,-8
444,369
672,434
1001,569
880,470
227,637
844,86
923,582
681,886
611,850
